language ESSENCE' 1.0

letting jobs = 102
letting horizon = 823
letting resourcesRenew = 2
letting resourcesNonrenew = 2
letting resourceLimits = [14, 13, 278, 311]
letting successors = [[2, 3, 4, 5, 7, 8, 9, 13, 14], [20, 19, 18, 12, 10, 6], [28, 26, 22, 20, 19, 11, 10], [24, 20, 17, 16, 15, 11], [28, 24, 18, 15, 11], [22, 17, 15, 11], [22, 18, 10], [37, 26, 22, 19, 15], [36, 32, 25, 20, 18], [37, 36, 35, 29, 27, 15], [38, 37, 36, 32, 31, 30, 29, 27, 25, 23, 21], [42, 37, 36, 32, 31, 30, 29, 26, 25, 23], [42, 37, 36, 31, 30, 26, 25, 23], [32, 30, 25, 18], [38, 32, 31, 30, 25, 23, 21], [38, 32, 31, 29, 25, 23, 22], [44, 43, 42, 37, 34, 33, 31, 26], [44, 43, 42, 37, 31, 29, 26], [42, 38, 36, 34, 32, 29, 27], [38, 30, 23, 21], [44, 43, 42, 39, 33], [50, 46, 44, 33, 30], [44, 43, 34, 33], [46, 44, 43, 38, 33], [44, 43, 39, 33], [40, 39, 38, 35], [51, 48, 43, 41, 39], [48, 41, 40, 36], [46, 45, 33], [60, 59, 51, 48, 45, 43, 41], [51, 50, 49, 48, 45, 41, 40], [46, 45, 43, 41, 40], [61, 60, 51, 49, 48, 47, 40], [60, 50, 46, 45, 41], [59, 54, 53, 51, 49, 48, 47, 45], [60, 59, 54, 47, 45, 43], [63, 61, 60, 58, 54, 51, 49, 46], [53, 52, 50, 49, 47, 45], [71, 60, 50, 46, 45], [64, 63, 59, 58, 57, 56, 55, 54, 53, 52], [63, 61, 56, 55, 54, 52, 47], [58, 52, 49, 46], [61, 58, 53, 52, 49], [64, 52, 45], [70, 63, 62, 61, 58, 56, 55], [70, 64, 62, 59, 57, 55, 53], [76, 74, 71, 70, 68, 64, 62, 58, 57], [58, 56, 52], [78, 71, 70, 57, 56, 55], [70, 68, 61, 58, 57, 56], [78, 74, 70, 69, 55], [74, 71, 70, 68, 66, 62], [78, 75, 74, 69, 68, 67, 66, 65], [78, 77, 75, 70, 68, 67, 65], [75, 68, 67, 66, 65], [77, 76, 75, 74, 73, 69, 65], [90, 79, 75, 73, 72, 66], [90, 78, 75, 67, 65], [101, 86, 83, 77, 76, 74, 68], [90, 79, 73, 69, 67], [101, 90, 86, 85, 80, 79, 78, 74, 73], [90, 75, 69, 67], [84, 82, 79, 75, 72, 69], [90, 84, 82, 72, 69], [86, 85, 84, 83, 82, 79, 72], [101, 89, 86, 85, 84, 83, 82, 81, 77], [88, 86, 84, 83, 82, 81, 72], [90, 82, 80, 79, 73], [101, 91, 88, 87, 86, 85, 83, 81], [91, 90, 89, 83, 82, 81, 80], [91, 89, 88, 82, 81, 80], [101, 100, 91, 89, 80], [98, 95, 91, 88, 87, 81], [99, 91, 87, 84, 82], [99, 98, 97, 95, 91, 88, 87], [100, 98, 97, 95, 94, 93, 91, 87], [99, 97, 95, 91, 88, 87], [99, 97, 93, 87, 83], [100, 99, 98, 89, 88], [98, 97, 95, 94, 93, 87], [100, 99, 96, 94, 93, 92], [96, 95, 94, 93, 92], [98, 96, 95, 94, 92], [100, 97, 95, 93], [98, 96, 93, 92], [97, 94, 93], [96, 92], [94, 93], [95, 92], [93, 92], [92], [102], [102], [102], [102], [102], [102], [102], [102], [102], [102], []]
letting durations = [[0], [3, 5, 6], [3, 6, 10], [2, 5, 7], [5, 7, 10], [1, 2, 8], [2, 7, 10], [2, 7, 8], [1, 2, 6], [2, 6, 8], [1, 1, 6], [5, 8, 9], [1, 2, 3], [8, 9, 10], [5, 8, 10], [2, 6, 10], [6, 6, 10], [3, 5, 6], [4, 5, 6], [4, 8, 9], [2, 3, 9], [5, 9, 10], [1, 2, 7], [5, 8, 8], [3, 7, 7], [2, 4, 8], [7, 8, 10], [1, 6, 7], [6, 7, 8], [2, 4, 7], [1, 6, 7], [6, 7, 8], [2, 4, 6], [2, 4, 9], [6, 8, 8], [2, 3, 5], [4, 5, 10], [3, 5, 7], [2, 6, 8], [2, 4, 10], [6, 7, 9], [2, 4, 7], [7, 8, 9], [4, 6, 10], [5, 7, 10], [4, 7, 10], [8, 8, 9], [1, 6, 10], [7, 8, 9], [6, 7, 8], [6, 9, 10], [2, 5, 10], [2, 3, 8], [1, 1, 7], [2, 4, 9], [1, 3, 6], [6, 6, 9], [2, 3, 7], [7, 8, 9], [1, 2, 5], [2, 3, 4], [1, 7, 9], [2, 8, 9], [1, 3, 9], [5, 7, 10], [6, 7, 10], [1, 1, 6], [1, 3, 5], [5, 7, 10], [1, 8, 10], [3, 6, 7], [2, 6, 10], [4, 5, 9], [1, 2, 9], [9, 9, 10], [1, 4, 8], [1, 3, 7], [4, 7, 9], [3, 8, 9], [2, 3, 7], [2, 8, 9], [6, 7, 10], [1, 2, 6], [3, 7, 10], [1, 6, 10], [2, 6, 6], [1, 8, 10], [2, 4, 10], [4, 5, 10], [8, 9, 10], [1, 2, 9], [3, 6, 7], [3, 6, 6], [6, 7, 9], [2, 8, 10], [4, 9, 10], [4, 5, 8], [3, 3, 5], [2, 5, 8], [4, 5, 8], [1, 1, 3], [0]]
letting resourceUsage = [[[0, 0, 0, 0]], [[3, 1, 6, 0], [3, 1, 0, 6], [3, 1, 0, 5]], [[3, 5, 0, 8], [3, 4, 6, 0], [2, 2, 0, 3]], [[5, 3, 0, 8], [3, 2, 0, 6], [3, 2, 3, 0]], [[4, 4, 5, 0], [4, 4, 4, 0], [3, 4, 2, 0]], [[4, 5, 10, 0], [3, 3, 0, 6], [3, 3, 9, 0]], [[5, 3, 6, 0], [4, 2, 0, 4], [4, 1, 4, 0]], [[5, 3, 0, 8], [4, 2, 8, 0], [3, 2, 7, 0]], [[1, 3, 0, 7], [1, 3, 4, 0], [1, 3, 3, 0]], [[1, 3, 0, 3], [1, 3, 0, 2], [1, 3, 4, 0]], [[4, 5, 6, 0], [2, 2, 0, 2], [2, 2, 4, 0]], [[4, 4, 0, 10], [2, 4, 6, 0], [2, 3, 2, 0]], [[3, 2, 7, 0], [2, 2, 7, 0], [2, 1, 0, 1]], [[5, 4, 5, 0], [4, 3, 4, 0], [3, 3, 3, 0]], [[5, 3, 0, 6], [4, 3, 5, 0], [4, 3, 0, 6]], [[4, 5, 0, 6], [3, 4, 0, 5], [1, 3, 5, 0]], [[1, 2, 8, 0], [1, 2, 0, 7], [1, 2, 0, 6]], [[3, 2, 0, 6], [2, 2, 0, 5], [2, 1, 9, 0]], [[4, 3, 9, 0], [3, 2, 0, 4], [3, 2, 9, 0]], [[4, 4, 0, 3], [4, 3, 0, 3], [4, 2, 9, 0]], [[3, 1, 0, 6], [3, 1, 9, 0], [1, 1, 8, 0]], [[4, 2, 0, 6], [3, 2, 8, 0], [3, 2, 0, 2]], [[4, 2, 0, 7], [4, 2, 0, 6], [4, 2, 0, 5]], [[5, 4, 3, 0], [4, 4, 0, 4], [3, 2, 2, 0]], [[2, 5, 6, 0], [2, 5, 3, 0], [2, 5, 0, 4]], [[2, 4, 0, 7], [2, 3, 4, 0], [1, 1, 3, 0]], [[4, 4, 0, 8], [3, 3, 0, 8], [2, 3, 0, 6]], [[4, 3, 4, 0], [2, 2, 0, 6], [1, 2, 4, 0]], [[3, 1, 0, 4], [3, 1, 5, 0], [3, 1, 4, 0]], [[3, 2, 9, 0], [1, 1, 0, 2], [1, 1, 0, 1]], [[5, 3, 10, 0], [4, 3, 4, 0], [2, 3, 0, 8]], [[2, 5, 0, 8], [2, 3, 0, 8], [2, 2, 4, 0]], [[4, 4, 0, 4], [3, 2, 0, 3], [3, 1, 7, 0]], [[2, 2, 8, 0], [1, 1, 0, 9], [1, 1, 0, 8]], [[4, 4, 5, 0], [3, 4, 0, 3], [1, 4, 4, 0]], [[4, 4, 7, 0], [3, 3, 4, 0], [3, 3, 2, 0]], [[5, 3, 0, 9], [2, 1, 0, 6], [1, 1, 0, 5]], [[2, 1, 9, 0], [2, 1, 0, 6], [1, 1, 0, 4]], [[4, 2, 0, 7], [3, 1, 0, 5], [3, 1, 5, 0]], [[1, 1, 0, 9], [1, 1, 5, 0], [1, 1, 0, 7]], [[5, 4, 0, 9], [5, 3, 0, 7], [5, 3, 6, 0]], [[1, 5, 0, 4], [1, 4, 2, 0], [1, 3, 0, 2]], [[3, 3, 0, 5], [2, 2, 8, 0], [2, 2, 5, 0]], [[5, 4, 0, 7], [3, 3, 0, 5], [3, 3, 0, 4]], [[5, 3, 7, 0], [5, 3, 0, 5], [5, 3, 2, 0]], [[3, 5, 0, 5], [2, 4, 6, 0], [2, 4, 0, 4]], [[5, 4, 7, 0], [5, 3, 0, 6], [5, 2, 0, 5]], [[2, 3, 0, 6], [2, 2, 6, 0], [2, 2, 5, 0]], [[3, 4, 0, 10], [3, 3, 0, 9], [1, 3, 0, 8]], [[5, 2, 0, 5], [5, 1, 0, 4], [5, 1, 0, 2]], [[4, 1, 0, 8], [4, 1, 3, 0], [2, 1, 3, 0]], [[4, 5, 0, 9], [4, 5, 2, 0], [4, 5, 0, 8]], [[2, 3, 0, 9], [2, 3, 5, 0], [2, 3, 4, 0]], [[3, 4, 6, 0], [3, 4, 0, 5], [2, 4, 0, 2]], [[4, 3, 0, 5], [4, 3, 0, 3], [4, 3, 0, 2]], [[3, 2, 0, 4], [2, 2, 2, 0], [1, 2, 0, 1]], [[5, 4, 0, 5], [4, 4, 9, 0], [2, 4, 0, 5]], [[5, 3, 6, 0], [3, 3, 6, 0], [3, 2, 6, 0]], [[4, 3, 3, 0], [2, 3, 0, 5], [2, 3, 2, 0]], [[3, 4, 0, 9], [3, 4, 4, 0], [3, 3, 4, 0]], [[4, 4, 9, 0], [2, 4, 0, 7], [2, 3, 0, 5]], [[5, 4, 0, 7], [3, 4, 0, 6], [3, 4, 0, 4]], [[5, 3, 7, 0], [4, 3, 5, 0], [4, 2, 0, 8]], [[2, 4, 7, 0], [2, 3, 0, 6], [1, 2, 3, 0]], [[2, 4, 0, 4], [2, 3, 5, 0], [2, 3, 0, 3]], [[4, 2, 0, 10], [4, 1, 0, 7], [4, 1, 0, 6]], [[2, 1, 0, 6], [1, 1, 5, 0], [1, 1, 4, 0]], [[4, 3, 7, 0], [3, 1, 0, 6], [3, 1, 5, 0]], [[3, 1, 0, 6], [3, 1, 8, 0], [3, 1, 7, 0]], [[2, 4, 0, 7], [2, 3, 0, 5], [2, 3, 0, 1]], [[5, 1, 10, 0], [2, 1, 0, 4], [1, 1, 7, 0]], [[3, 1, 0, 8], [2, 1, 3, 0], [1, 1, 3, 0]], [[5, 3, 7, 0], [2, 3, 3, 0], [2, 3, 1, 0]], [[5, 5, 6, 0], [4, 4, 6, 0], [3, 4, 0, 5]], [[4, 4, 9, 0], [2, 3, 0, 3], [1, 3, 0, 3]], [[2, 3, 6, 0], [1, 3, 0, 8], [1, 2, 0, 8]], [[4, 3, 2, 0], [4, 3, 0, 7], [4, 3, 1, 0]], [[2, 2, 9, 0], [1, 2, 0, 7], [1, 2, 6, 0]], [[4, 3, 9, 0], [3, 2, 6, 0], [3, 1, 0, 8]], [[4, 3, 5, 0], [3, 3, 3, 0], [3, 3, 0, 9]], [[3, 5, 1, 0], [3, 3, 0, 4], [2, 2, 0, 3]], [[4, 2, 0, 7], [2, 2, 0, 6], [2, 1, 5, 0]], [[5, 5, 0, 1], [4, 5, 0, 1], [2, 5, 5, 0]], [[2, 2, 8, 0], [2, 1, 7, 0], [1, 1, 0, 5]], [[4, 4, 0, 5], [3, 4, 0, 4], [3, 4, 0, 3]], [[5, 4, 6, 0], [3, 3, 6, 0], [2, 3, 0, 5]], [[4, 5, 0, 3], [4, 4, 6, 0], [4, 4, 0, 2]], [[4, 2, 5, 0], [3, 2, 5, 0], [2, 2, 3, 0]], [[5, 4, 0, 8], [4, 2, 0, 4], [4, 1, 6, 0]], [[4, 5, 0, 10], [3, 4, 0, 9], [3, 2, 0, 8]], [[3, 2, 8, 0], [2, 1, 8, 0], [2, 1, 7, 0]], [[2, 2, 6, 0], [2, 2, 0, 4], [2, 2, 0, 1]], [[5, 3, 4, 0], [5, 3, 3, 0], [5, 3, 0, 2]], [[1, 2, 3, 0], [1, 2, 2, 0], [1, 2, 1, 0]], [[5, 4, 7, 0], [2, 3, 0, 6], [2, 1, 0, 5]], [[4, 5, 6, 0], [2, 3, 4, 0], [2, 3, 0, 7]], [[4, 5, 0, 10], [2, 3, 4, 0], [2, 3, 3, 0]], [[4, 5, 0, 5], [4, 3, 6, 0], [4, 1, 0, 3]], [[4, 5, 0, 9], [3, 4, 0, 6], [2, 3, 8, 0]], [[2, 3, 0, 9], [2, 2, 0, 8], [2, 1, 3, 0]], [[2, 1, 8, 0], [1, 1, 0, 8], [1, 1, 6, 0]], [[0, 0, 0, 0]]]
